treewidth/data/HararyGraph_6_15.gr
p tw 15 45
1 2
1 8
1 9
1 5
1 6
1 7
2 8
2 9
2 10
2 6
2 7
8 9
8 10
8 11
8 7
9 10
9 11
9 12
10 11
10 12
10 13
11 12
11 13
11 14
12 13
12 14
12 15
13 14
13 15
13 3
14 15
14 3
14 4
15 3
15 4
15 5
3 4
3 5
3 6
4 5
4 6
4 7
5 6
5 7
6 7
