treewidth/data/HararyGraph_6_15.td
c width = 6, time = 0.132661
s td 9 7 15
b 1 1 6 7 11 12 13 14
b 2 1 6 7 10 11 12 13
b 3 1 6 7 9 10 11 12
b 4 1 6 7 8 9 10 11
b 5 1 2 6 7 8 9 10
b 6 1 6 7 12 13 14 15
b 7 1 5 6 7 13 14 15
b 8 4 5 6 7 13 14 15
b 9 3 4 5 6 13 14 15
4 5
3 4
2 3
1 2
8 9
7 8
6 7
1 6
